60
1 0 2
2 0 10
3 0 1
4 0 7
4 1 5
4 3 1
5 0 2
5 2 3
5 4 7
6 0 10
6 4 6
7 1 4
7 4 7
7 6 1
8 0 7
8 2 8
8 5 6
8 6 10
8 7 2
9 5 2
9 8 10
10 8 9
11 0 9
11 4 6
11 7 1
11 8 2
11 9 2
12 1 1
12 3 5
12 4 10
12 5 7
12 7 5
12 8 2
12 9 1
12 10 9
12 11 5
13 0 8
13 2 6
13 8 5
13 10 9
13 12 6
14 0 10
14 3 3
14 5 7
14 8 7
14 12 6
14 13 8
15 3 4
15 6 2
15 10 8
15 11 8
15 12 3
15 13 6
15 14 1
16 2 2
16 3 6
16 6 9
16 7 7
16 8 9
16 11 7
16 13 6
16 14 1
16 15 1
17 1 4
17 6 6
17 9 1
17 10 5
17 12 1
17 13 6
18 0 6
18 1 1
18 5 2
18 10 6
18 12 9
18 13 3
18 15 9
18 17 4
19 0 1
19 3 10
19 5 3
19 8 9
19 9 1
19 10 6
19 12 5
19 13 10
19 14 5
19 16 1
19 18 5
20 0 1
20 1 1
20 2 6
20 3 6
20 4 6
20 7 8
20 9 9
20 10 8
20 14 4
20 15 1
20 19 7
21 0 6
21 3 10
21 7 2
21 10 5
21 11 9
21 12 1
21 13 3
21 16 2
21 18 2
22 4 10
22 5 7
22 6 2
22 7 4
22 9 7
22 10 9
22 11 1
22 12 8
22 13 9
22 14 2
22 16 10
22 17 6
22 19 1
22 20 2
22 21 8
23 1 9
23 5 2
23 8 6
23 10 5
23 18 5
23 20 3
23 22 9
24 4 3
24 7 6
24 10 4
24 11 10
24 12 6
24 14 4
24 15 4
24 16 8
24 17 3
25 0 9
25 1 10
25 2 3
25 4 1
25 7 7
25 8 4
25 11 3
25 12 5
25 13 6
25 15 8
25 16 3
25 17 1
25 18 9
25 21 8
26 0 9
26 3 8
26 4 2
26 6 5
26 8 3
26 11 4
26 13 2
26 15 4
26 17 1
26 18 6
26 19 10
26 20 6
26 21 3
26 24 2
26 25 9
27 3 10
27 4 2
27 5 8
27 6 3
27 8 1
27 9 10
27 10 6
27 11 6
27 12 6
27 13 1
27 14 3
27 17 9
27 18 8
27 20 4
27 22 6
27 23 1
28 0 6
28 1 5
28 4 9
28 5 7
28 7 9
28 8 7
28 9 1
28 12 1
28 13 6
28 14 4
28 15 9
28 18 10
28 20 10
28 21 3
28 22 10
28 23 6
28 24 1
28 26 3
29 2 9
29 6 8
29 8 8
29 9 7
29 10 4
29 12 2
29 13 2
29 15 3
29 16 5
29 17 2
29 22 7
29 23 8
29 28 3
30 1 5
30 3 4
30 4 6
30 6 5
30 8 7
30 10 10
30 12 3
30 13 6
30 15 3
30 21 8
30 26 8
30 27 8
30 28 4
30 29 2
31 0 7
31 1 5
31 5 5
31 6 7
31 11 9
31 12 2
31 14 5
31 15 2
31 16 9
31 18 10
31 19 5
31 20 3
31 21 2
31 22 6
31 24 10
31 25 7
31 27 2
31 29 6
32 1 4
32 2 2
32 3 2
32 5 10
32 7 10
32 8 10
32 11 7
32 13 9
32 15 9
32 16 10
32 19 5
32 24 7
32 25 2
32 30 3
33 1 3
33 2 3
33 5 6
33 9 4
33 11 7
33 12 1
33 15 10
33 17 8
33 18 7
33 20 3
33 21 5
33 22 10
33 27 2
34 0 2
34 1 5
34 2 8
34 7 6
34 10 8
34 12 8
34 13 3
34 14 7
34 17 4
34 20 1
34 21 2
34 22 10
34 23 8
34 26 8
34 30 3
34 33 4
35 2 9
35 3 5
35 6 1
35 9 9
35 11 2
35 14 3
35 15 1
35 20 7
35 21 3
35 24 9
35 25 1
35 26 10
35 28 10
35 29 8
35 31 10
35 32 6
35 33 10
36 0 9
36 1 8
36 2 1
36 3 2
36 6 7
36 9 8
36 10 8
36 14 1
36 15 9
36 20 10
36 21 9
36 22 2
36 23 10
36 25 3
36 31 4
36 32 3
36 35 1
37 1 5
37 5 6
37 6 6
37 8 1
37 12 4
37 13 2
37 14 7
37 17 5
37 18 3
37 21 3
37 22 7
37 26 9
37 29 8
37 30 6
37 32 5
37 35 1
37 36 7
38 0 3
38 1 6
38 3 2
38 4 8
38 8 2
38 10 5
38 13 8
38 14 5
38 17 7
38 18 9
38 22 10
38 23 9
38 26 1
38 27 9
38 28 5
38 30 7
38 31 8
38 35 1
39 1 3
39 2 8
39 3 7
39 4 8
39 5 6
39 6 2
39 7 8
39 9 6
39 10 2
39 11 10
39 12 2
39 15 8
39 17 10
39 26 9
39 30 8
39 31 7
39 33 3
39 34 2
39 38 5
40 0 8
40 1 1
40 2 9
40 3 10
40 5 10
40 7 3
40 9 2
40 13 7
40 15 2
40 16 6
40 17 7
40 18 3
40 20 1
40 26 10
40 27 3
40 30 10
40 32 8
40 35 8
40 38 3
41 0 5
41 4 10
41 5 6
41 7 1
41 8 4
41 11 6
41 13 1
41 21 4
41 25 3
41 29 7
41 34 8
41 36 6
41 39 10
42 3 10
42 4 10
42 5 7
42 7 3
42 9 1
42 11 5
42 12 10
42 15 1
42 16 5
42 19 7
42 21 7
42 22 1
42 23 4
42 25 1
42 26 6
42 28 6
42 29 1
42 32 1
42 36 2
42 37 10
42 39 10
43 0 9
43 1 10
43 2 9
43 3 5
43 4 10
43 6 5
43 7 2
43 11 8
43 12 4
43 13 4
43 14 9
43 15 2
43 16 4
43 18 10
43 19 9
43 20 3
43 21 8
43 23 8
43 24 8
43 28 5
43 29 5
43 30 8
43 33 10
43 35 2
43 37 3
43 40 4
44 0 2
44 3 8
44 4 4
44 5 4
44 9 10
44 11 9
44 13 2
44 15 9
44 17 1
44 19 3
44 21 9
44 23 10
44 24 9
44 27 8
44 29 3
44 30 5
44 32 1
44 39 2
44 40 9
44 43 5
45 1 6
45 2 5
45 6 6
45 7 9
45 8 7
45 10 6
45 13 10
45 16 10
45 18 1
45 21 8
45 25 8
45 28 2
45 31 2
45 32 3
45 34 10
45 35 10
45 37 9
45 40 8
45 41 1
45 44 6
46 1 5
46 2 4
46 3 2
46 5 4
46 6 1
46 7 10
46 8 8
46 9 3
46 10 4
46 13 3
46 14 10
46 15 5
46 17 7
46 19 2
46 20 10
46 21 5
46 25 9
46 28 10
46 30 2
46 31 2
46 34 6
46 42 4
47 0 2
47 1 6
47 8 5
47 10 9
47 12 8
47 14 6
47 15 9
47 16 10
47 18 7
47 21 10
47 22 2
47 23 7
47 24 4
47 25 3
47 26 10
47 27 1
47 29 7
47 33 8
47 34 2
47 35 7
47 37 7
47 38 7
47 39 8
47 40 4
47 44 1
47 46 10
48 1 9
48 9 6
48 12 4
48 14 10
48 16 4
48 18 4
48 20 8
48 23 9
48 24 8
48 27 5
48 28 1
48 29 5
48 30 10
48 31 6
48 32 2
48 33 6
48 34 1
48 35 6
48 36 1
48 37 8
48 42 9
48 46 6
48 47 3
49 2 5
49 5 1
49 8 3
49 10 2
49 11 8
49 12 5
49 13 6
49 14 8
49 15 10
49 17 4
49 19 5
49 20 7
49 24 1
49 25 7
49 26 6
49 27 9
49 28 1
49 31 6
49 32 3
49 33 9
49 34 2
49 36 8
49 38 1
49 39 9
49 42 7
49 43 9
49 45 6
50 0 5
50 1 3
50 5 4
50 6 4
50 7 6
50 11 10
50 12 2
50 14 9
50 17 1
50 20 9
50 21 5
50 22 4
50 23 6
50 24 1
50 25 7
50 26 10
50 28 10
50 33 3
50 35 4
50 39 1
50 40 3
50 41 1
50 42 10
50 43 2
50 44 2
50 45 8
50 48 2
50 49 7
51 0 4
51 1 2
51 2 10
51 12 7
51 13 5
51 15 1
51 16 1
51 19 7
51 20 3
51 21 10
51 22 9
51 26 8
51 27 9
51 30 5
51 31 5
51 33 1
51 35 4
51 41 10
51 44 9
51 49 3
52 2 8
52 3 10
52 4 4
52 6 2
52 10 8
52 12 5
52 14 8
52 15 5
52 18 4
52 19 7
52 20 10
52 23 4
52 25 7
52 26 10
52 28 9
52 31 8
52 33 5
52 38 8
52 39 9
52 44 3
52 48 6
53 2 3
53 5 10
53 9 6
53 10 2
53 12 1
53 15 10
53 16 3
53 17 1
53 19 1
53 20 4
53 21 7
53 22 6
53 25 8
53 26 8
53 28 6
53 29 5
53 31 7
53 32 2
53 33 7
53 35 8
53 37 1
53 38 1
53 42 8
53 43 4
53 44 6
53 45 6
53 46 7
53 50 7
53 52 1
54 2 6
54 5 3
54 8 9
54 9 2
54 11 9
54 13 7
54 14 9
54 18 5
54 20 2
54 22 7
54 23 10
54 25 6
54 26 7
54 27 9
54 29 10
54 30 9
54 32 10
54 33 10
54 34 8
54 35 6
54 37 1
54 38 5
54 39 3
54 40 4
54 42 7
54 49 8
54 51 7
55 0 8
55 1 6
55 2 7
55 4 5
55 6 5
55 7 8
55 8 7
55 9 4
55 10 8
55 11 6
55 12 6
55 18 5
55 19 6
55 25 6
55 27 6
55 28 1
55 29 2
55 30 1
55 31 10
55 32 4
55 34 3
55 40 2
55 41 9
55 42 6
55 44 8
55 45 10
55 46 4
55 49 1
55 50 4
55 51 6
55 52 6
55 53 4
55 54 6
56 1 3
56 2 9
56 3 4
56 5 6
56 6 9
56 7 8
56 8 8
56 10 4
56 11 8
56 12 4
56 13 5
56 15 4
56 16 7
56 17 8
56 18 6
56 22 3
56 26 10
56 30 5
56 34 5
56 36 10
56 37 7
56 43 7
56 44 1
56 46 8
56 47 6
56 48 10
56 49 1
56 50 5
56 51 10
56 53 10
57 0 6
57 3 2
57 4 7
57 5 1
57 6 6
57 7 7
57 8 6
57 15 7
57 16 7
57 17 4
57 18 2
57 20 2
57 21 5
57 22 2
57 23 4
57 24 6
57 25 5
57 26 9
57 27 1
57 29 7
57 30 6
57 32 3
57 33 2
57 35 6
57 36 7
57 37 4
57 38 4
57 39 4
57 40 2
57 41 4
57 42 3
57 43 9
57 44 7
57 45 7
57 46 1
57 47 6
57 48 8
57 49 2
57 50 1
57 52 5
58 0 3
58 1 10
58 2 8
58 5 2
58 7 6
58 9 7
58 13 8
58 14 10
58 15 5
58 16 5
58 17 4
58 18 2
58 19 6
58 21 10
58 25 4
58 26 6
58 27 9
58 28 8
58 33 10
58 34 5
58 37 6
58 42 2
58 46 8
58 47 2
58 51 5
58 53 1
58 54 3
58 55 5
59 1 8
59 2 4
59 3 9
59 4 9
59 5 4
59 6 3
59 7 4
59 11 8
59 12 6
59 14 8
59 17 4
59 20 9
59 21 3
59 24 3
59 28 10
59 29 8
59 31 3
59 32 9
59 33 3
59 37 5
59 38 5
59 39 3
59 40 5
59 41 10
59 45 6
59 47 4
59 49 10
59 50 3
59 51 8
59 55 7
59 57 10
